
Gurobi 13.0.1 (linux64) logging started Wed Mar 18 23:48:00 2026

Set parameter LogFile to value "logs/150B_3F_deterministic_2026-03-18_23h45m39s.log"
Gurobi Optimizer version 13.0.1 build v13.0.1rc0 (linux64 - "openSUSE Tumbleweed")

CPU model: Intel(R) Core(TM) i7-10610U CPU @ 1.80GHz, instruction set [SSE2|AVX|AVX2]
Thread count: 4 physical cores, 8 logical processors, using up to 8 threads

Non-default parameters:
TimeLimit  3600
SoftMemLimit  13.2

Optimize a model with 107470 rows, 3420160 columns and 10280716 nonzeros (Max)
Model fingerprint: 0xb457a562
Model has 3363970 linear objective coefficients
Variable types: 22660 continuous, 3397500 integer (3397500 binary)
Coefficient statistics:
  Matrix range     [8e-05, 2e+04]
  Objective range  [8e+00, 3e+03]
  Bounds range     [1e+00, 1e+05]
  RHS range        [1e+00, 1e+05]

Presolve removed 65471 rows and 2790591 columns
Presolve time: 3.86s
Presolved: 41999 rows, 629569 columns, 1963058 nonzeros
Variable types: 8870 continuous, 620699 integer (620699 binary)
Found heuristic solution: objective -5.47266e+08
Found heuristic solution: objective -5.44953e+08
Performing another presolve...
Presolve removed 6998 rows and 10 columns (presolve time = 5s)...
Presolve removed 6998 rows and 10 columns (presolve time = 10s)...
Presolve removed 6998 rows and 10 columns (presolve time = 15s)...
Presolve removed 6998 rows and 10 columns (presolve time = 20s)...
Presolve removed 6998 rows and 10 columns (presolve time = 25s)...
Presolve removed 6998 rows and 10 columns (presolve time = 30s)...
Presolve removed 6998 rows and 10 columns (presolve time = 35s)...
Presolve removed 6998 rows and 10 columns (presolve time = 40s)...
Presolve removed 6998 rows and 10 columns (presolve time = 45s)...
Presolve removed 6998 rows and 10 columns (presolve time = 50s)...
Presolve removed 6998 rows and 10 columns (presolve time = 55s)...
Presolve removed 6998 rows and 10 columns (presolve time = 60s)...
Presolve removed 6998 rows and 10 columns (presolve time = 65s)...
Presolve removed 6998 rows and 10 columns (presolve time = 70s)...
Presolve removed 6998 rows and 10 columns (presolve time = 75s)...
Presolve removed 6998 rows and 10 columns (presolve time = 80s)...
Presolve removed 6998 rows and 10 columns (presolve time = 85s)...
Presolve removed 6998 rows and 10 columns (presolve time = 90s)...
Presolve removed 6998 rows and 10 columns (presolve time = 95s)...
Presolve removed 6998 rows and 10 columns (presolve time = 100s)...
Presolve removed 6998 rows and 500762 columns (presolve time = 207s)...
Presolve removed 28022 rows and 500762 columns (presolve time = 210s)...
Presolve removed 28012 rows and 500742 columns
Presolve time: 211.14s
Deterministic concurrent LP optimizer: primal and dual simplex
Showing primal log only...


Root simplex log...

Iteration    Objective       Primal Inf.    Dual Inf.      Time
       0   -1.0098306e+04   6.514273e+02   4.960443e+09    220s
    2648   -5.4734932e+08   0.000000e+00   3.580751e+10    220s
   49476   -1.8953287e+07   0.000000e+00   3.474121e+09    225s
   88696   -1.0946307e+07   0.000000e+00   7.687913e+08    230s
Concurrent spin time: 2.43s (can be avoided by choosing Method=3)

Solved with dual simplex

Root simplex log...

Iteration    Objective       Primal Inf.    Dual Inf.      Time
   14831   -1.0520745e+07   0.000000e+00   0.000000e+00    233s

Root relaxation: objective -1.052074e+07, 14831 iterations, 13.15 seconds (9.92 work units)
Total elapsed time = 232.57s (DegenMoves)

    Nodes    |    Current Node    |     Objective Bounds      |     Work
 Expl Unexpl |  Obj  Depth IntInf | Incumbent    BestBd   Gap | It/Node Time

     0     0 -1.052e+07    0  644 -5.450e+08 -1.052e+07  98.1%     -  233s
H    0     0                    -4.14887e+08 -1.052e+07  97.5%     -  239s
H    0     0                    -3.45086e+08 -1.052e+07  97.0%     -  239s
H    0     0                    -3.20769e+08 -1.052e+07  96.7%     -  247s
H    0     0                    -2.78274e+08 -1.052e+07  96.2%     -  247s
H    0     0                    -2.73386e+08 -1.052e+07  96.2%     -  249s
H    0     0                    -2.69061e+08 -1.052e+07  96.1%     -  256s
     0     0 -1.398e+07    0  367 -2.691e+08 -1.398e+07  94.8%     -  294s
H    0     0                    -2.65657e+08 -1.399e+07  94.7%     -  304s
H    0     0                    -2.55532e+08 -1.399e+07  94.5%     -  313s
H    0     0                    -2.54137e+08 -1.399e+07  94.5%     -  314s
H    0     0                    -2.53653e+08 -1.399e+07  94.5%     -  321s
H    0     0                    -2.52628e+08 -1.399e+07  94.5%     -  322s
H    0     0                    -2.52623e+08 -1.399e+07  94.5%     -  324s
H    0     0                    -2.52622e+08 -1.399e+07  94.5%     -  328s
     0     0 -1.399e+07    0  370 -2.526e+08 -1.399e+07  94.5%     -  332s
     0     0 -1.793e+07    0  426 -2.526e+08 -1.793e+07  92.9%     -  355s
     0     0 -1.802e+07    0  423 -2.526e+08 -1.802e+07  92.9%     -  368s
     0     0 -1.802e+07    0  423 -2.526e+08 -1.802e+07  92.9%     -  368s
     0     0 -2.269e+07    0  448 -2.526e+08 -2.269e+07  91.0%     -  401s
     0     0 -2.281e+07    0  411 -2.526e+08 -2.281e+07  91.0%     -  406s
     0     0 -2.330e+07    0  417 -2.526e+08 -2.330e+07  90.8%     -  406s
     0     0 -2.487e+07    0  436 -2.526e+08 -2.487e+07  90.2%     -  425s
     0     0 -2.533e+07    0  406 -2.526e+08 -2.533e+07  90.0%     -  440s
     0     0 -2.536e+07    0  435 -2.526e+08 -2.536e+07  90.0%     -  442s
     0     0 -2.536e+07    0  426 -2.526e+08 -2.536e+07  90.0%     -  443s
     0     0 -2.751e+07    0  418 -2.526e+08 -2.751e+07  89.1%     -  457s
     0     0 -2.759e+07    0  421 -2.526e+08 -2.759e+07  89.1%     -  467s
     0     0 -2.759e+07    0  426 -2.526e+08 -2.759e+07  89.1%     -  469s
     0     0 -2.759e+07    0  431 -2.526e+08 -2.759e+07  89.1%     -  470s
     0     0 -2.999e+07    0  449 -2.526e+08 -2.999e+07  88.1%     -  486s
H    0     0                    -2.51872e+08 -3.008e+07  88.1%     -  496s
     0     0 -3.008e+07    0  452 -2.519e+08 -3.008e+07  88.1%     -  497s
     0     0 -3.011e+07    0  441 -2.519e+08 -3.011e+07  88.0%     -  500s
     0     0 -3.011e+07    0  441 -2.519e+08 -3.011e+07  88.0%     -  500s
H    0     0                    -2.51363e+08 -3.256e+07  87.0%     -  519s
     0     0 -3.256e+07    0  476 -2.514e+08 -3.256e+07  87.0%     -  521s
H    0     0                    -2.51342e+08 -3.258e+07  87.0%     -  528s
H    0     0                    -2.51342e+08 -3.258e+07  87.0%     -  556s
H    0     0                    -2.51342e+08 -3.273e+07  87.0%     -  563s
     0     0 -3.273e+07    0  452 -2.513e+08 -3.273e+07  87.0%     -  563s
     0     0 -3.274e+07    0  470 -2.513e+08 -3.274e+07  87.0%     -  566s
     0     0 -3.274e+07    0  471 -2.513e+08 -3.274e+07  87.0%     -  566s
     0     0 -3.543e+07    0  482 -2.513e+08 -3.543e+07  85.9%     -  588s
H    0     0                    -2.51298e+08 -3.543e+07  85.9%     -  605s
H    0     0                    -2.51298e+08 -3.543e+07  85.9%     -  605s
     0     0 -3.589e+07    0  489 -2.513e+08 -3.589e+07  85.7%     -  615s
     0     0 -3.598e+07    0  489 -2.513e+08 -3.598e+07  85.7%     -  622s
     0     0 -3.601e+07    0  504 -2.513e+08 -3.601e+07  85.7%     -  625s
     0     0 -3.601e+07    0  503 -2.513e+08 -3.601e+07  85.7%     -  626s
     0     0 -4.010e+07    0  439 -2.513e+08 -4.010e+07  84.0%     -  644s
     0     0 -4.071e+07    0  468 -2.513e+08 -4.071e+07  83.8%     -  657s
     0     0 -4.076e+07    0  501 -2.513e+08 -4.076e+07  83.8%     -  661s
     0     0 -4.076e+07    0  495 -2.513e+08 -4.076e+07  83.8%     -  662s
     0     0 -4.541e+07    0  505 -2.513e+08 -4.541e+07  81.9%     -  681s
     0     0 -4.566e+07    0  502 -2.513e+08 -4.566e+07  81.8%     -  691s
     0     0 -4.571e+07    0  507 -2.513e+08 -4.571e+07  81.8%     -  696s
     0     0 -4.572e+07    0  498 -2.513e+08 -4.572e+07  81.8%     -  698s
     0     0 -5.174e+07    0  473 -2.513e+08 -5.174e+07  79.4%     -  717s
     0     0 -5.678e+07    0  477 -2.513e+08 -5.678e+07  77.4%     -  737s
     0     0 -5.722e+07    0  494 -2.513e+08 -5.722e+07  77.2%     -  744s
     0     0 -5.725e+07    0  501 -2.513e+08 -5.725e+07  77.2%     -  748s
     0     0 -5.727e+07    0  491 -2.513e+08 -5.727e+07  77.2%     -  751s
     0     0 -5.727e+07    0  502 -2.513e+08 -5.727e+07  77.2%     -  752s
     0     0 -6.221e+07    0  478 -2.513e+08 -6.221e+07  75.2%     -  774s
     0     0 -6.321e+07    0  530 -2.513e+08 -6.321e+07  74.8%     -  791s
     0     0 -6.467e+07    0  504 -2.513e+08 -6.467e+07  74.3%     -  801s
     0     0 -6.484e+07    0  525 -2.513e+08 -6.484e+07  74.2%     -  806s
     0     0 -6.485e+07    0  533 -2.513e+08 -6.485e+07  74.2%     -  809s
H    0     0                    -2.51236e+08 -6.983e+07  72.2%     -  830s
H    0     0                    -2.51235e+08 -6.983e+07  72.2%     -  830s
     0     0 -6.983e+07    0  512 -2.512e+08 -6.983e+07  72.2%     -  832s
     0     0 -7.068e+07    0  513 -2.512e+08 -7.068e+07  71.9%     -  896s
     0     0 -7.071e+07    0  521 -2.512e+08 -7.071e+07  71.9%     -  900s
     0     0 -7.071e+07    0  513 -2.512e+08 -7.071e+07  71.9%     -  902s
H    0     0                    -2.51140e+08 -7.395e+07  70.6%     -  921s
H    0     0                    -2.51140e+08 -7.395e+07  70.6%     -  921s
     0     0 -7.395e+07    0  511 -2.511e+08 -7.395e+07  70.6%     -  923s
     0     0 -7.490e+07    0  521 -2.511e+08 -7.490e+07  70.2%     -  958s
     0     0 -7.496e+07    0  501 -2.511e+08 -7.496e+07  70.2%     -  964s
     0     0 -7.498e+07    0  493 -2.511e+08 -7.498e+07  70.1%     -  967s
     0     0 -7.721e+07    0  478 -2.511e+08 -7.721e+07  69.3%     -  985s
     0     0 -7.762e+07    0  465 -2.511e+08 -7.762e+07  69.1%     -  997s
     0     0 -7.768e+07    0  491 -2.511e+08 -7.768e+07  69.1%     - 1002s
     0     0 -7.773e+07    0  480 -2.511e+08 -7.773e+07  69.1%     - 1005s
     0     0 -7.773e+07    0  472 -2.511e+08 -7.773e+07  69.0%     - 1006s
     0     0 -8.176e+07    0  494 -2.511e+08 -8.176e+07  67.4%     - 1029s
     0     0 -8.296e+07    0  543 -2.511e+08 -8.296e+07  67.0%     - 1050s
     0     0 -8.304e+07    0  544 -2.511e+08 -8.304e+07  66.9%     - 1055s
     0     0 -8.305e+07    0  553 -2.511e+08 -8.305e+07  66.9%     - 1057s
     0     0 -8.688e+07    0  534 -2.511e+08 -8.688e+07  65.4%     - 1078s
     0     0 -8.806e+07    0  569 -2.511e+08 -8.806e+07  64.9%     - 1094s
     0     0 -8.833e+07    0  569 -2.511e+08 -8.833e+07  64.8%     - 1104s
     0     0 -8.835e+07    0  570 -2.511e+08 -8.835e+07  64.8%     - 1108s
H    0     0                    -2.51140e+08 -9.233e+07  63.2%     - 1132s
     0     0 -9.233e+07    0  544 -2.511e+08 -9.233e+07  63.2%     - 1134s
     0     0 -9.270e+07    0  552 -2.511e+08 -9.270e+07  63.1%     - 1146s
     0     0 -9.278e+07    0  540 -2.511e+08 -9.278e+07  63.1%     - 1150s
     0     0 -9.278e+07    0  562 -2.511e+08 -9.278e+07  63.1%     - 1152s
     0     0 -9.470e+07    0  530 -2.511e+08 -9.470e+07  62.3%     - 1171s
     0     0 -9.510e+07    0  532 -2.511e+08 -9.510e+07  62.1%     - 1186s
     0     0 -9.517e+07    0  521 -2.511e+08 -9.517e+07  62.1%     - 1191s
     0     0 -9.518e+07    0  546 -2.511e+08 -9.518e+07  62.1%     - 1194s
     0     0 -9.993e+07    0  518 -2.511e+08 -9.993e+07  60.2%     - 1217s
H    0     0                    -2.51140e+08 -1.006e+08  59.9%     - 1234s
     0     0 -1.006e+08    0  542 -2.511e+08 -1.006e+08  59.9%     - 1235s
     0     0 -1.009e+08    0  581 -2.511e+08 -1.009e+08  59.8%     - 1246s
     0     0 -1.010e+08    0  587 -2.511e+08 -1.010e+08  59.8%     - 1253s
     0     0 -1.011e+08    0  574 -2.511e+08 -1.011e+08  59.7%     - 1255s
     0     0 -1.011e+08    0  579 -2.511e+08 -1.011e+08  59.7%     - 1256s
     0     0 -1.057e+08    0  561 -2.511e+08 -1.057e+08  57.9%     - 1278s
     0     0 -1.063e+08    0  583 -2.511e+08 -1.063e+08  57.7%     - 1330s
     0     0 -1.064e+08    0  596 -2.511e+08 -1.064e+08  57.6%     - 1337s
     0     0 -1.065e+08    0  596 -2.511e+08 -1.065e+08  57.6%     - 1342s
     0     0 -1.065e+08    0  608 -2.511e+08 -1.065e+08  57.6%     - 1343s
     0     0 -1.118e+08    0  634 -2.511e+08 -1.118e+08  55.5%     - 1367s
H    0     0                    -2.51110e+08 -1.118e+08  55.5%     - 1390s
     0     0 -1.128e+08    0  654 -2.511e+08 -1.128e+08  55.1%     - 1411s
     0     0 -1.130e+08    0  631 -2.511e+08 -1.130e+08  55.0%     - 1419s
     0     0 -1.131e+08    0  656 -2.511e+08 -1.131e+08  55.0%     - 1423s
     0     0 -1.131e+08    0  650 -2.511e+08 -1.131e+08  55.0%     - 1426s
     0     0 -1.189e+08    0  606 -2.511e+08 -1.189e+08  52.7%     - 1448s
     0     0 -1.209e+08    0  602 -2.511e+08 -1.209e+08  51.8%     - 1469s
     0     0 -1.213e+08    0  614 -2.511e+08 -1.213e+08  51.7%     - 1479s
     0     0 -1.214e+08    0  642 -2.511e+08 -1.214e+08  51.7%     - 1484s
     0     0 -1.214e+08    0  656 -2.511e+08 -1.214e+08  51.6%     - 1491s
     0     0 -1.286e+08    0  560 -2.511e+08 -1.286e+08  48.8%     - 1517s
     0     0 -1.298e+08    0  605 -2.511e+08 -1.298e+08  48.3%     - 1531s
     0     0 -1.300e+08    0  604 -2.511e+08 -1.300e+08  48.2%     - 1538s
     0     0 -1.301e+08    0  620 -2.511e+08 -1.301e+08  48.2%     - 1542s
     0     0 -1.301e+08    0  653 -2.511e+08 -1.301e+08  48.2%     - 1546s
     0     0 -1.378e+08    0  640 -2.511e+08 -1.378e+08  45.1%     - 1569s
     0     0 -1.394e+08    0  649 -2.511e+08 -1.394e+08  44.5%     - 1584s
     0     0 -1.396e+08    0  665 -2.511e+08 -1.396e+08  44.4%     - 1591s
     0     0 -1.396e+08    0  617 -2.511e+08 -1.396e+08  44.4%     - 1596s
     0     0 -1.461e+08    0  613 -2.511e+08 -1.461e+08  41.8%     - 1622s
H    0     0                    -2.51110e+08 -1.472e+08  41.4%     - 1637s
     0     0 -1.472e+08    0  640 -2.511e+08 -1.472e+08  41.4%     - 1639s
     0     0 -1.473e+08    0  604 -2.511e+08 -1.473e+08  41.3%     - 1644s
     0     0 -1.474e+08    0  613 -2.511e+08 -1.474e+08  41.3%     - 1646s
     0     0 -1.578e+08    0  656 -2.511e+08 -1.578e+08  37.1%     - 1664s
H    0     0                    -2.51110e+08 -1.579e+08  37.1%     - 1725s
H    0     0                    -2.51110e+08 -1.588e+08  36.8%     - 1736s
     0     0 -1.588e+08    0  652 -2.511e+08 -1.588e+08  36.8%     - 1736s
     0     0 -1.590e+08    0  656 -2.511e+08 -1.590e+08  36.7%     - 1744s
     0     0 -1.592e+08    0  684 -2.511e+08 -1.592e+08  36.6%     - 1752s
     0     0 -1.592e+08    0  684 -2.511e+08 -1.592e+08  36.6%     - 1754s
     0     0 -1.654e+08    0  643 -2.511e+08 -1.654e+08  34.1%     - 1773s
     0     0 -1.668e+08    0  646 -2.511e+08 -1.668e+08  33.6%     - 1784s
     0     0 -1.671e+08    0  635 -2.511e+08 -1.671e+08  33.4%     - 1790s
     0     0 -1.672e+08    0  634 -2.511e+08 -1.672e+08  33.4%     - 1794s
     0     0 -1.674e+08    0  655 -2.511e+08 -1.674e+08  33.3%     - 1797s
     0     0 -1.674e+08    0  654 -2.511e+08 -1.674e+08  33.3%     - 1799s
     0     0 -1.734e+08    0  576 -2.511e+08 -1.734e+08  30.9%     - 1819s
     0     0 -1.748e+08    0  612 -2.511e+08 -1.748e+08  30.4%     - 1828s
     0     0 -1.756e+08    0  616 -2.511e+08 -1.756e+08  30.1%     - 1834s
     0     0 -1.756e+08    0  638 -2.511e+08 -1.756e+08  30.1%     - 1837s
     0     0 -1.823e+08    0  567 -2.511e+08 -1.823e+08  27.4%     - 1851s
H    0     0                    -2.51059e+08 -1.823e+08  27.4%     - 1869s
H    0     0                    -2.51000e+08 -1.823e+08  27.4%     - 1870s
     0     0 -1.834e+08    0  561 -2.510e+08 -1.834e+08  26.9%     - 1877s
     0     0 -1.837e+08    0  560 -2.510e+08 -1.837e+08  26.8%     - 1884s
     0     0 -1.838e+08    0  599 -2.510e+08 -1.838e+08  26.8%     - 1888s
     0     0 -1.838e+08    0  610 -2.510e+08 -1.838e+08  26.8%     - 1890s
     0     0 -1.888e+08    0  608 -2.510e+08 -1.888e+08  24.8%     - 1906s
     0     0 -1.894e+08    0  621 -2.510e+08 -1.894e+08  24.5%     - 1913s
     0     0 -1.897e+08    0  604 -2.510e+08 -1.897e+08  24.4%     - 1917s
     0     0 -1.897e+08    0  609 -2.510e+08 -1.897e+08  24.4%     - 1919s
     0     0 -1.922e+08    0  631 -2.510e+08 -1.922e+08  23.4%     - 1932s
     0     0 -1.928e+08    0  636 -2.510e+08 -1.928e+08  23.2%     - 1940s
     0     0 -1.929e+08    0  641 -2.510e+08 -1.929e+08  23.2%     - 1944s
     0     0 -1.955e+08    0  599 -2.510e+08 -1.955e+08  22.1%     - 1955s
     0     0 -1.960e+08    0  601 -2.510e+08 -1.960e+08  21.9%     - 1961s
     0     0 -1.961e+08    0  605 -2.510e+08 -1.961e+08  21.9%     - 1964s
     0     0 -1.977e+08    0  654 -2.510e+08 -1.977e+08  21.2%     - 1977s
     0     0 -1.989e+08    0  601 -2.510e+08 -1.989e+08  20.8%     - 1988s
     0     0 -1.990e+08    0  615 -2.510e+08 -1.990e+08  20.7%     - 1992s
     0     0 -1.990e+08    0  618 -2.510e+08 -1.990e+08  20.7%     - 1994s
     0     0 -2.024e+08    0  614 -2.510e+08 -2.024e+08  19.4%     - 2005s
     0     0 -2.029e+08    0  651 -2.510e+08 -2.029e+08  19.1%     - 2012s
     0     0 -2.036e+08    0  675 -2.510e+08 -2.036e+08  18.9%     - 2017s
     0     0 -2.037e+08    0  670 -2.510e+08 -2.037e+08  18.9%     - 2019s
     0     0 -2.060e+08    0  611 -2.510e+08 -2.060e+08  17.9%     - 2038s
     0     0 -2.070e+08    0  637 -2.510e+08 -2.070e+08  17.5%     - 2050s
     0     0 -2.070e+08    0  616 -2.510e+08 -2.070e+08  17.5%     - 2053s
     0     0 -2.080e+08    0  612 -2.510e+08 -2.080e+08  17.1%     - 2062s
     0     0 -2.087e+08    0  597 -2.510e+08 -2.087e+08  16.9%     - 2069s
     0     0 -2.087e+08    0  615 -2.510e+08 -2.087e+08  16.8%     - 2071s
     0     0 -2.100e+08    0  563 -2.510e+08 -2.100e+08  16.4%     - 2080s
H    0     0                    -2.50999e+08 -2.100e+08  16.3%     - 2099s
     0     0 -2.103e+08    0  582 -2.510e+08 -2.103e+08  16.2%     - 2103s
     0     0 -2.104e+08    0  621 -2.510e+08 -2.104e+08  16.2%     - 2106s
     0     0 -2.105e+08    0  542 -2.510e+08 -2.105e+08  16.1%     - 2109s
     0     0 -2.105e+08    0  563 -2.510e+08 -2.105e+08  16.1%     - 2110s
     0     0 -2.105e+08    0  571 -2.510e+08 -2.105e+08  16.1%     - 2111s
     0     0 -2.105e+08    0  571 -2.510e+08 -2.105e+08  16.1%     - 2117s
     0     2 -2.105e+08    0  571 -2.510e+08 -2.105e+08  16.1%     - 2144s
     1     4 -2.110e+08    1  605 -2.510e+08 -2.110e+08  15.9%   290 2147s
     3     8 -2.113e+08    2  623 -2.510e+08 -2.113e+08  15.8%  1111 2152s
    11    19 -2.134e+08    4  548 -2.510e+08 -2.121e+08  15.5%  1161 2158s
    18    24 -2.226e+08    5  456 -2.510e+08 -2.121e+08  15.5%  1044 2161s
    23    29 -2.140e+08    5  525 -2.510e+08 -2.121e+08  15.5%  1051 2166s
    35    42 -2.159e+08    8  507 -2.510e+08 -2.121e+08  15.5%   993 2173s
    41    48 -2.178e+08    9  477 -2.510e+08 -2.121e+08  15.5%   970 2176s
    55    65 -2.180e+08   10  482 -2.510e+08 -2.121e+08  15.5%   925 2183s
    64    72 -2.188e+08   12  474 -2.510e+08 -2.121e+08  15.5%   894 2186s
    80    88 -2.236e+08   14  418 -2.510e+08 -2.121e+08  15.5%   856 2192s
    87    95 -2.210e+08   15  459 -2.510e+08 -2.121e+08  15.5%   851 2195s
   100   111 -2.231e+08   16  441 -2.510e+08 -2.121e+08  15.5%   824 2201s
   119   131 -2.246e+08   20  418 -2.510e+08 -2.121e+08  15.5%   803 2207s
   130   140 -2.270e+08   20  389 -2.510e+08 -2.121e+08  15.5%   784 2212s
   150   162 -2.256e+08   22  390 -2.510e+08 -2.121e+08  15.5%   767 2217s
   163   174 -2.278e+08   22  374 -2.510e+08 -2.121e+08  15.5%   744 2223s
   178   187 -2.268e+08   23  383 -2.510e+08 -2.121e+08  15.5%   729 2227s
   193   199 -2.271e+08   25  361 -2.510e+08 -2.121e+08  15.5%   720 2230s
   215   212 -2.276e+08   27  364 -2.510e+08 -2.121e+08  15.5%   681 2236s
   238   219 -2.304e+08   28  317 -2.510e+08 -2.121e+08  15.5%   653 2241s
   248   228 -2.293e+08   29  374 -2.510e+08 -2.121e+08  15.5%   668 2247s
   265   233 -2.341e+08   29  337 -2.510e+08 -2.121e+08  15.5%   656 2253s
   270   243 -2.297e+08   30  358 -2.510e+08 -2.121e+08  15.5%   670 2258s
   280   253 -2.304e+08   32  397 -2.510e+08 -2.121e+08  15.5%   675 2263s
   290   265 -2.306e+08   34  395 -2.510e+08 -2.121e+08  15.5%   680 2268s
   302   274 -2.320e+08   35  384 -2.510e+08 -2.121e+08  15.5%   685 2273s
   311   288 -2.313e+08   36  359 -2.510e+08 -2.121e+08  15.5%   685 2278s
   325   312 -2.329e+08   39  357 -2.510e+08 -2.121e+08  15.5%   685 2283s
   349   322 -2.367e+08   42  308 -2.510e+08 -2.121e+08  15.5%   663 2290s
   371   332 -2.375e+08   44  290 -2.510e+08 -2.121e+08  15.5%   655 2296s
   381   350 -2.389e+08   46  273 -2.510e+08 -2.121e+08  15.5%   663 2302s
   399   365 -2.413e+08   53  324 -2.510e+08 -2.121e+08  15.5%   667 2309s
   414   394 -2.423e+08   55  308 -2.510e+08 -2.121e+08  15.5%   672 2316s
   443   428 -2.435e+08   68  272 -2.510e+08 -2.121e+08  15.5%   663 2322s
   477   479 -2.438e+08   76  276 -2.510e+08 -2.121e+08  15.5%   648 2330s
   528   545 -2.468e+08   91  152 -2.510e+08 -2.121e+08  15.5%   620 2337s
   599   600 -2.492e+08  112   96 -2.510e+08 -2.150e+08  14.3%   576 2345s
   676   641 -2.170e+08    4  537 -2.510e+08 -2.150e+08  14.3%   536 2353s
   736   710 -2.172e+08    5  530 -2.510e+08 -2.150e+08  14.3%   513 2359s
   816   731 -2.209e+08    7  471 -2.510e+08 -2.150e+08  14.3%   476 2376s
   867   745 -2.206e+08    9  478 -2.510e+08 -2.150e+08  14.3%   469 2384s
   881   764 -2.236e+08   12  419 -2.510e+08 -2.150e+08  14.3%   476 2392s
   900   785 -2.279e+08   17  415 -2.510e+08 -2.150e+08  14.3%   483 2400s
   921   808 -2.290e+08   18  419 -2.510e+08 -2.150e+08  14.3%   490 2408s
   944   842 -2.295e+08   20  405 -2.510e+08 -2.150e+08  14.3%   496 2418s
   992   860 -2.337e+08   24  394 -2.510e+08 -2.150e+08  14.3%   493 2426s
  1010   881 -2.390e+08   26  352 -2.510e+08 -2.150e+08  14.3%   501 2435s
  1031   898 -2.405e+08   30  351 -2.510e+08 -2.150e+08  14.3%   506 2445s
  1062   919 -2.424e+08   35  305 -2.510e+08 -2.150e+08  14.3%   509 2455s
  1083   958 -2.436e+08   40  317 -2.510e+08 -2.150e+08  14.3%   514 2466s
  1124  1057 -2.483e+08   52  142 -2.510e+08 -2.150e+08  14.3%   515 2478s
  1235  1058 -2.355e+08   17 4353 -2.510e+08 -2.150e+08  14.3%   492 2526s
  1237  1059 -2.508e+08   47  310 -2.510e+08 -2.150e+08  14.3%   491 2567s
H 1237  1006                    -2.50999e+08 -2.150e+08  14.3%   491 2604s
  1239  1008 -2.270e+08   21  384 -2.510e+08 -2.150e+08  14.3%   490 2632s
  1240  1008 -2.323e+08   23  346 -2.510e+08 -2.150e+08  14.3%   490 2655s
  1241  1009 -2.326e+08   36  350 -2.510e+08 -2.150e+08  14.3%   490 2678s
  1242  1010 -2.508e+08  115  320 -2.510e+08 -2.150e+08  14.3%   489 2695s
  1243  1010 -2.461e+08   36  314 -2.510e+08 -2.150e+08  14.3%   489 2706s
  1244  1011 -2.486e+08   63  332 -2.510e+08 -2.150e+08  14.3%   488 2712s
  1245  1012 -2.336e+08   38  390 -2.510e+08 -2.150e+08  14.3%   488 2722s
  1246  1012 -2.483e+08   41  363 -2.510e+08 -2.150e+08  14.3%   488 2727s
  1247  1013 -2.298e+08   18  438 -2.510e+08 -2.150e+08  14.3%   487 2735s
  1249  1014 -2.460e+08   89  382 -2.510e+08 -2.150e+08  14.3%   487 2750s
  1250  1015 -2.496e+08   81  384 -2.510e+08 -2.174e+08  13.4%   486 2756s
  1251  1016 -2.485e+08   59  383 -2.510e+08 -2.192e+08  12.7%   486 2762s
  1252  1016 -2.392e+08   17  410 -2.510e+08 -2.207e+08  12.1%   485 2769s
  1253  1017 -2.227e+08    9  405 -2.510e+08 -2.218e+08  11.7%   485 2776s
  1254  1018 -2.496e+08   81  389 -2.510e+08 -2.228e+08  11.2%   485 2782s
  1255  1018 -2.495e+08   51  364 -2.510e+08 -2.241e+08  10.7%   484 2788s
  1256  1019 -2.243e+08   15  361 -2.510e+08 -2.243e+08  10.6%   484 2794s
  1257  1020 -2.435e+08   68  367 -2.510e+08 -2.245e+08  10.5%   483 2796s
  1258  1020 -2.374e+08   28  380 -2.510e+08 -2.247e+08  10.5%   483 2800s
  1261  1022 -2.506e+08   44  389 -2.510e+08 -2.250e+08  10.4%   482 2806s
  1263  1024 -2.452e+08   31  386 -2.510e+08 -2.250e+08  10.4%   481 2810s
  1267  1026 -2.295e+08   18  375 -2.510e+08 -2.251e+08  10.3%   480 2815s
  1273  1030 -2.500e+08  110  378 -2.510e+08 -2.251e+08  10.3%   477 2822s
  1274  1031 -2.403e+08   16  225 -2.510e+08 -2.403e+08  4.27%   477 2831s
  1276  1032 -2.464e+08   47  246 -2.510e+08 -2.434e+08  3.03%   476 2836s
  1281  1036 -2.439e+08   19  227 -2.510e+08 -2.439e+08  2.83%   474 2840s
  1285  1038 -2.498e+08   26  112 -2.510e+08 -2.498e+08  0.48%   473 2845s
  1287  1040 -2.508e+08  105  203 -2.510e+08 -2.506e+08  0.15%   472 2850s
  1295  1046 -2.508e+08    6 1936 -2.510e+08 -2.508e+08  0.06%   571 2855s
  1302  1052 -2.509e+08   96  258 -2.510e+08 -2.509e+08  0.04%   575 2861s
  1311  1058 -2.509e+08   36   89 -2.510e+08 -2.509e+08  0.04%   571 2865s
H 1341  1023                    -2.50997e+08 -2.509e+08  0.04%   558 2869s
  1348  1028 -2.509e+08   29   68 -2.510e+08 -2.509e+08  0.04%   555 2870s
H 1389  1007                    -2.50996e+08 -2.509e+08  0.04%   560 2875s

Cutting planes:
  Learned: 2
  Gomory: 3
  Cover: 29
  Implied bound: 8
  Projected implied bound: 64
  Clique: 22
  MIR: 56
  Mixing: 1
  Flow cover: 16
  RLT: 11
  Relax-and-lift: 12
  BQP: 28
  PSD: 1

Explored 1407 nodes (1139774 simplex iterations) in 2877.80 seconds (1720.21 work units)
Thread count was 8 (of 8 available processors)

Solution count 10: -2.50996e+08 -2.50997e+08 -2.50999e+08 ... -2.5114e+08

Optimal solution found (tolerance 1.00e-04)
Best objective -2.509962861360e+08, best bound -2.509944933508e+08, gap 0.0007%
